(declare-fun v12 () (_ BitVec 6))
(declare-fun v21 () (_ BitVec 16))
(declare-fun a86 () (Array (_ BitVec 5) (_ BitVec 2)))
(assert
(let (($e1 false    ))
(let (($e7 (_ bv5 3)))
(let (($e17 (_ bv1 4)))
(let (($e27 (_ bv7 3)))
(let (($e29 (_ bv31 5)))
(let (($e32 (_ bv4095 12)))
(let (($e526                    $e27      ))
(let (($e527 (concat $e526 $e7)))
(let (($e528 (bvand v12 $e527)))
(let (($e848                    $e32      ))
(let (($e849 (concat $e848 $e17)))
(let (($e850      (= $e849 v21)         ))
(let (($e851             $e850 ))
(let (($e852             $e851           ))
(let (($e1050                     $e29      ))
(let (($e1051 (concat $e1050 $e852)))
(let (($e1052 (bvand $e528 $e1051)))
(let (($e1053 (concat $e1 $e17)))
(let (($e1054 (select a86 $e1053)))
(let (($e1055 (   extract      $e1054)))
(let (($e1056              $e1055          ))
(let (($e1057             $e1056 ))
              (ite        $e1057  $e528 $e1052)
                                                                                                                                                                                                                                                                                                                                                                                                                                                                                                                                                                                                                                                                                                                                                                                                                                                                                                                                                                                                                                                                                                                                                                                                                                                                                                                                                                                                                                                                                                                                                                                                                                                                                                                                                                                                                                                                                                                                                                                                                                                                                                                                                                                                                                                                                                                                                                                                                                                                                                                                                                                                                                                                                                                                                                                                                                                                                                                                                                                                                                                                                                                                                                                                                                                                                                                                                                                                                                                                                                                                                                                                                                                                                                                                                                                                                                                                                                                                                                                                                                      ))))))))                                                                                                                                                                                                     )))))                                                                                                                                                                                                                                                                                                                               )))                                                                                                                                                                                                                                                                                                                                                                                                                                                                                  )  ) )         )         )     ))
